p cnf 211 101
-1 32 208 -209 0 
-2 182 -3 10 35 128 184 208 -209 0 
-4 -5 9 179 180 198 208 -209 0 
-6 205 -7 111 208 -209 0 
-3 10 35 128 184 -2 182 208 -209 0 
-8 -1 32 -9 5 179 180 198 208 -209 0 
-10 3 35 128 184 209 -208 0 
-2 182 208 -209 0 
-11 208 -209 0 
-12 208 -209 0 
-13 208 -209 0 
-1 32 -11 208 -209 0 
-14 208 -209 0 
-1 32 -15 20 22 24 34 55 68 79 148 153 -16 18 38 208 -209 0 
-17 208 -209 0 
-18 16 38 -26 208 -209 0 
-27 65 -28 208 -209 0 
-20 15 22 24 34 55 68 79 148 153 -1 32 208 -209 0 
-63 145 146 147 -64 75 80 117 208 -209 0 
-65 27 -1 32 208 -209 0 
-66 19 21 25 37 39 40 41 42 43 44 45 46 47 48 49 50 51 52 53 54 56 57 58 60 61 81 82 83 84 85 86 87 88 89 90 91 92 93 94 95 96 97 98 99 100 133 135 137 138 141 143 144 149 154 155 156 157 158 159 160 161 162 163 164 165 166 167 168 169 170 171 193 194 195 197 -13 208 -209 0 
-70 104 115 123 201 209 -208 0 
-71 208 -209 0 
-72 101 208 -209 0 
-73 208 -209 0 
-1 32 -74 110 118 183 208 -209 0 
-75 64 80 117 208 -209 0 
-28 208 -209 0 
-76 -11 208 -209 0 
-3 10 35 128 184 208 -209 0 
-77 208 -209 0 
-78 208 -209 0 
-3 10 35 128 184 -80 64 75 117 210 0 
-1 32 -3 10 35 128 184 -101 72 208 -209 0 
-102 109 -103 208 -209 0 
-104 70 115 123 201 -105 208 -209 0 
-106 59 67 134 139 -107 208 -209 0 
-108 -109 102 208 -209 0 
-110 74 118 183 -111 7 208 -209 0 
-1 32 -3 10 35 128 184 208 -209 0 
-1 32 -112 208 -209 0 
-65 27 -13 208 -209 0 
-113 130 -114 188 202 208 -209 0 
-69 136 142 196 -1 32 -31 208 -209 0 
-115 70 104 123 201 208 -209 0 
-29 140 -116 206 208 -209 0 
-117 64 75 80 208 -209 0 
-29 140 -1 32 -118 74 110 183 208 -209 0 
-119 -120 208 -209 0 
-121 129 -122 208 -209 0 
-29 140 -8 -123 70 104 115 201 -124 -11 208 -209 0 
-71 209 -208 0 
-8 -29 140 -125 187 -126 208 -209 0 
-121 129 -11 208 -209 0 
-127 150 208 -209 0 
-128 3 10 35 184 209 -208 0 
-102 109 -129 121 208 -209 0 
-130 113 -131 208 -209 0 
-11 211 0 
-150 127 208 -209 0 
-1 32 -151 -11 208 -209 0 
-1 32 -131 208 -209 0 
-1 32 -152 208 -209 0 
-1 32 -153 15 20 22 24 34 55 68 79 148 208 -209 0 
-69 136 142 196 -1 32 -172 208 -209 0 
-29 140 -8 -173 -174 208 -209 0 
-175 209 -208 0 
-176 192 208 -209 0 
-177 208 -209 0 
-178 208 -209 0 
-69 136 142 196 -179 5 9 180 198 -65 27 208 -209 0 
-180 5 9 179 198 208 -209 0 
-181 208 -209 0 
-182 2 208 -209 0 
-3 10 35 128 184 210 0 
-183 74 110 118 208 -209 0 
-184 3 10 35 128 208 -209 0 
-185 -11 208 -209 0 
-1 32 -186 -187 125 -188 114 202 208 -209 0 
-153 15 20 22 24 34 55 68 79 148 -189 208 -209 0 
-9 5 179 180 198 -2 182 -11 208 -209 0 
-29 140 -8 -173 -190 208 -209 0 
-29 140 -9 5 179 180 198 -102 109 -191 208 -209 0 
-182 2 -192 176 208 -209 0 
-198 5 9 179 180 -199 208 -209 0 
-186 -13 208 -209 0 
-18 16 38 -200 208 -209 0 
-3 10 35 128 184 -13 208 -209 0 
-65 27 -11 -13 208 -209 0 
-20 15 22 24 34 55 68 79 148 153 -2 182 -13 208 -209 0 
-131 -201 70 104 115 123 -202 114 188 208 -209 0 
-203 208 -209 0 
-204 208 -209 0 
-205 6 -206 116 208 -209 0 
-2 182 -11 -13 208 -209 0 
-32 1 -28 -11 208 -209 0 
-28 -13 208 -209 0 
-29 140 -8 -207 -80 64 75 117 208 -209 0 
-11 -13 208 -209 0 
-147 63 145 146 -199 -13 208 -209 0 
-17 208 -209 0 
